NAME          ClpDefau  FREE
ROWS
 N  OBJROW
 L  ZMUNI1_PCT
 L  ZMUNI2_PCT
 L  ZMUNI3_PCT
 L  ZMUNI4_PCT
 L  ZMUNI5_PCT
 L  ZMUNI6_PCT
 L  ZMUNI7_PCT
 L  ZMUNI8_PCT
 L  ZMUNI9_PCT
COLUMNS
    QMUNI1 OBJROW 1.          
    QMUNI1 ZMUNI1_PCT 29717.6361  
    QMUNI1 ZMUNI2_PCT 1875.496    
    QMUNI1 ZMUNI3_PCT 4350.2808   
    QMUNI1 ZMUNI4_PCT 3155.9945   
    QMUNI1 ZMUNI5_PCT 141.716     
    QMUNI1 ZMUNI6_PCT 360.4889    
    QMUNI1 ZMUNI7_PCT 2356.7199   
    QMUNI1 ZMUNI8_PCT 1630.4016   
    QMUNI1 ZMUNI9_PCT 641.4413    
    QMUNI2 OBJROW 1.          
    QMUNI2 ZMUNI1_PCT 2368.1641   
    QMUNI2 ZMUNI2_PCT 36299.1333  
    QMUNI2 ZMUNI3_PCT 3208.7326   
    QMUNI2 ZMUNI4_PCT 3208.7327   
    QMUNI2 ZMUNI5_PCT 1071.5485   
    QMUNI2 ZMUNI6_PCT 1099.968    
    QMUNI2 ZMUNI7_PCT 3169.2504   
    QMUNI2 ZMUNI8_PCT 3091.4306   
    QMUNI2 ZMUNI9_PCT 3220.1767   
    QMUNI3 OBJROW 1.          
    QMUNI3 ZMUNI1_PCT 4047.5845   
    QMUNI3 ZMUNI2_PCT 2527.9999   
    QMUNI3 ZMUNI3_PCT 31315.422   
    QMUNI3 ZMUNI4_PCT 4935.6461   
    QMUNI3 ZMUNI5_PCT  -7.8201    
    QMUNI3 ZMUNI6_PCT 130.2719    
    QMUNI3 ZMUNI7_PCT 1830.2917   
    QMUNI3 ZMUNI8_PCT 1469.8028   
    QMUNI3 ZMUNI9_PCT 530.8151    
    QMUNI4 OBJROW 1.          
    QMUNI4 ZMUNI1_PCT 3607.1777   
    QMUNI4 ZMUNI2_PCT 3361.5113   
    QMUNI4 ZMUNI3_PCT 5832.0999   
    QMUNI4 ZMUNI4_PCT 109478.1876 
    QMUNI4 ZMUNI5_PCT 610.1608    
    QMUNI4 ZMUNI6_PCT 693.7027    
    QMUNI4 ZMUNI7_PCT 2466.2017   
    QMUNI4 ZMUNI8_PCT 2127.8381   
    QMUNI4 ZMUNI9_PCT 1614.9521   
    QMUNI5 OBJROW 1.          
    QMUNI5 ZMUNI1_PCT 205.04      
    QMUNI5 ZMUNI2_PCT 128.9368    
    QMUNI5 ZMUNI3_PCT 169.3725    
    QMUNI5 ZMUNI4_PCT 112.1521    
    QMUNI5 ZMUNI5_PCT 39641.3803  
    QMUNI5 ZMUNI6_PCT 2874.7559   
    QMUNI5 ZMUNI7_PCT 547.7905    
    QMUNI5 ZMUNI8_PCT 365.448     
    QMUNI5 ZMUNI9_PCT 334.3582    
    QMUNI6 OBJROW 1.          
    QMUNI6 ZMUNI1_PCT 327.301     
    QMUNI6 ZMUNI2_PCT 113.8688    
    QMUNI6 ZMUNI3_PCT 244.1406    
    QMUNI6 ZMUNI4_PCT 177.7649    
    QMUNI6 ZMUNI5_PCT 3056.5262   
    QMUNI6 ZMUNI6_PCT 34859.848   
    QMUNI6 ZMUNI7_PCT 699.234     
    QMUNI6 ZMUNI8_PCT 308.9904    
    QMUNI6 ZMUNI9_PCT 43.6783     
    QMUNI7 OBJROW 1.          
    QMUNI7 ZMUNI1_PCT 1323.8907   
    QMUNI7 ZMUNI2_PCT 720.0241    
    QMUNI7 ZMUNI3_PCT 1153.7552   
    QMUNI7 ZMUNI4_PCT 848.2934    
    QMUNI7 ZMUNI5_PCT 222.2061    
    QMUNI7 ZMUNI6_PCT 396.5378    
    QMUNI7 ZMUNI7_PCT 40287.3992  
    QMUNI7 ZMUNI8_PCT 2514.2669   
    QMUNI7 ZMUNI9_PCT 562.2864    
    QMUNI8 OBJROW 1.          
    QMUNI8 ZMUNI1_PCT 1066.5894   
    QMUNI8 ZMUNI2_PCT 856.781     
    QMUNI8 ZMUNI3_PCT 1083.374    
    QMUNI8 ZMUNI4_PCT 839.7103    
    QMUNI8 ZMUNI5_PCT  -57.2205   
    QMUNI8 ZMUNI6_PCT 53.7873     
    QMUNI8 ZMUNI7_PCT 2880.0964   
    QMUNI8 ZMUNI8_PCT 33185.9588  
    QMUNI8 ZMUNI9_PCT 1018.3334   
    QMUNI9 OBJROW 1.          
    QMUNI9 ZMUNI1_PCT 439.2624    
    QMUNI9 ZMUNI2_PCT 725.174     
    QMUNI9 ZMUNI3_PCT 530.6244    
    QMUNI9 ZMUNI4_PCT 465.107     
    QMUNI9 ZMUNI5_PCT  -29.1824   
    QMUNI9 ZMUNI6_PCT  -20.9808   
    QMUNI9 ZMUNI7_PCT 578.3081    
    QMUNI9 ZMUNI8_PCT 1068.1152   
    QMUNI9 ZMUNI9_PCT 31840.5151  
RHS
    RHS ZMUNI1_PCT 0.3021551545
    RHS ZMUNI2_PCT 0.1766372934
    RHS ZMUNI3_PCT 0.2869245915
    RHS ZMUNI4_PCT 0.1833938848
    RHS ZMUNI5_PCT 0.8929346964
    RHS ZMUNI6_PCT 0.7493838732
    RHS ZMUNI7_PCT -0.045532546
    RHS ZMUNI8_PCT 0.3255509623
    RHS ZMUNI9_PCT 0.2833518932
BOUNDS
 LO BOUND QMUNI1 -0.000705297
 UP BOUND QMUNI1      1.1e+10
 LO BOUND QMUNI2 -0.000459124
 UP BOUND QMUNI2      1.1e+10
 LO BOUND QMUNI3 -0.000509071
 UP BOUND QMUNI3      1.1e+10
 LO BOUND QMUNI4 -0.000222162
 UP BOUND QMUNI4      1.1e+10
 LO BOUND QMUNI5 -0.000247416
 UP BOUND QMUNI5      1.1e+10
 LO BOUND QMUNI6 -0.000421893
 UP BOUND QMUNI6      1.1e+10
 LO BOUND QMUNI7  -1.20304e-5
 UP BOUND QMUNI7      1.1e+10
 LO BOUND QMUNI8 -0.000152589
 UP BOUND QMUNI8      1.1e+10
 LO BOUND QMUNI9 -0.000152827
 UP BOUND QMUNI9      1.1e+10
ENDATA
